13 47 
84 19 
76 9 
1 20 
41 65 
78 9 
37 40 
61 95 
1 2 
32 23 
40 90 
30 35 
43 76 
11 47 
40 45 
4 54 
44 40 
25 20 
50 79 
41 43 
44 71 
4 81 
11 65 
29 65 
67 13 
40 60 
3 70 
95 46 
47 58 
46 39 
3 2 
93 47 
42 19 
20 44 
50 13 
87 94 
84 91 
28 47 
57 57 
12 76 
70 53 
36 25 
75 83 
72 74 
42 70 
14 97 
72 7 
97 66 
78 17 
11 80 
